(set-logic ALL)
(declare-const BAV1 Bool)
(declare-const BAV2 Bool)
(declare-const BAV3 Bool)
(declare-const BAV4 Bool)
(declare-const BAV5 Bool)
(declare-const BAV6 Bool)
(declare-const BAV7 Bool)
(declare-const BAV8 Bool)
(declare-const BAV9 Bool)
(declare-const BAV10 Bool)
(declare-const BAV11 Bool)
(declare-const BAV12 Bool)
(declare-const BAV13 Bool)
(declare-const BAV14 Bool)
(declare-const BAV15 Bool)
(declare-const BAV16 Bool)
(declare-const BAV17 Bool)
(declare-const BAV18 Bool)
(declare-const BAV19 Bool)
(declare-const BAV20 Bool)
(declare-const BAV21 Bool)
(declare-const BAV22 Bool)
(declare-const BAV23 Bool)
(declare-const BAV24 Bool)
(declare-const BAV25 Bool)
(declare-const BAV26 Bool)
(declare-const BAV27 Bool)
(declare-const BAV28 Bool)
(declare-const GEN70 Int)
(declare-const GEN69 Int)
(declare-const GEN68 Int)
(declare-const GEN67 String)
(declare-const GEN66 Int)
(declare-const GEN65 Int)
(declare-const GEN64 Int)
(declare-const GEN63 String)
(declare-const GEN62 Int)
(declare-const GEN61 Int)
(declare-const GEN60 Int)
(declare-const GEN59 String)
(declare-const GEN58 Int)
(declare-const GEN57 Int)
(declare-const GEN56 Int)
(declare-const GEN55 String)
(declare-const GEN54 Int)
(declare-const GEN53 Int)
(declare-const GEN52 Int)
(declare-const GEN51 Int)
(declare-const GEN50 Int)
(declare-const GEN49 Int)
(declare-const GEN48 Int)
(declare-const GEN47 Int)
(declare-const GEN46 String)
(declare-const GEN45 Int)
(declare-const GEN44 Int)
(declare-const GEN43 Int)
(declare-const GEN42 String)
(declare-const GEN41 Int)
(declare-const GEN40 Int)
(declare-const GEN39 Int)
(declare-const GEN38 Int)
(declare-const GEN37 Int)
(declare-const GEN36 Int)
(declare-const GEN35 Int)
(declare-const GEN34 String)
(declare-const GEN33 Int)
(declare-const GEN32 Int)
(declare-const GEN31 Int)
(declare-const GEN30 Int)
(declare-const GEN29 Int)
(declare-const GEN28 Int)
(declare-const GEN27 String)
(declare-const GEN26 Int)
(declare-const GEN25 Int)
(declare-const GEN24 String)
(declare-const GEN23 Int)
(declare-const GEN22 Int)
(declare-const GEN21 Int)
(declare-const GEN20 String)
(declare-const GEN19 Int)
(declare-const GEN18 Int)
(declare-const GEN17 String)
(declare-const GEN16 Int)
(declare-const GEN15 Int)
(declare-const GEN14 String)
(declare-const GEN13 Int)
(declare-const GEN12 Int)
(declare-const GEN11 Int)
(declare-const GEN10 Int)
(declare-const GEN9 Int)
(declare-const GEN8 Int)
(declare-const GEN7 Int)
(declare-const GEN6 Int)
(declare-const GEN5 Int)
(declare-const GEN4 String)
(declare-const GEN3 Int)
(declare-const GEN2 Int)
(declare-const GEN1 String)
(set-option :strings-exp true)
(declare-fun uri () String)
(assert (and (and (and (and (and (and (and (and (and (and (and (and (not (not (= (ite (= (str.len (str.substr (str.substr uri (+ (str.indexof uri GEN1 GEN2) GEN3) (- (str.len uri) (+ (str.indexof uri GEN4 GEN5) GEN6))) GEN7 (- GEN8 GEN9))) GEN10) GEN11 GEN12) GEN13))) (not (not (= (ite (str.contains (str.substr uri (+ (str.indexof uri GEN14 GEN15) GEN16) (- (str.len uri) (+ (str.indexof uri GEN17 GEN18) GEN19))) GEN20) GEN21 GEN22) GEN23)))) (not (not (= (ite (= (str.len (str.substr uri (+ (str.indexof uri GEN24 GEN25) GEN26) (- (str.len uri) (+ (str.indexof uri GEN27 GEN28) GEN29)))) GEN30) GEN31 GEN32) GEN33)))) (not (= (ite (str.contains uri GEN34) GEN35 GEN36) GEN37))) (not (not (= (ite (= (str.len uri) GEN38) GEN39 GEN40) GEN41)))) (>= (+ (str.indexof uri GEN42 GEN43) GEN44) GEN45)) (>= (- (str.len uri) (+ (str.indexof uri GEN46 GEN47) GEN48)) GEN49)) (>= GEN50 GEN51)) (>= (- GEN52 GEN53) GEN54)) (>= (+ (str.indexof uri GEN55 GEN56) GEN57) GEN58)) (>= (- (str.len uri) (+ (str.indexof uri GEN59 GEN60) GEN61)) GEN62)) (>= (+ (str.indexof uri GEN63 GEN64) GEN65) GEN66)) (>= (- (str.len uri) (+ (str.indexof uri GEN67 GEN68) GEN69)) GEN70)))
(assert (= BAV1 (and (and (and (and (and (and (and (and (and (and (and (and (not (not (= (ite (= (str.len (str.substr (str.substr uri (+ (str.indexof uri GEN1 GEN2) GEN3) (- (str.len uri) (+ (str.indexof uri GEN4 GEN5) GEN6))) GEN7 (- GEN8 GEN9))) GEN10) GEN11 GEN12) GEN13))) (not (not (= (ite (str.contains (str.substr uri (+ (str.indexof uri GEN14 GEN15) GEN16) (- (str.len uri) (+ (str.indexof uri GEN17 GEN18) GEN19))) GEN20) GEN21 GEN22) GEN23)))) (not (not (= (ite (= (str.len (str.substr uri (+ (str.indexof uri GEN24 GEN25) GEN26) (- (str.len uri) (+ (str.indexof uri GEN27 GEN28) GEN29)))) GEN30) GEN31 GEN32) GEN33)))) (not (= (ite (str.contains uri GEN34) GEN35 GEN36) GEN37))) (not (not (= (ite (= (str.len uri) GEN38) GEN39 GEN40) GEN41)))) (>= (+ (str.indexof uri GEN42 GEN43) GEN44) GEN45)) (>= (- (str.len uri) (+ (str.indexof uri GEN46 GEN47) GEN48)) GEN49)) (>= GEN50 GEN51)) (>= (- GEN52 GEN53) GEN54)) (>= (+ (str.indexof uri GEN55 GEN56) GEN57) GEN58)) (>= (- (str.len uri) (+ (str.indexof uri GEN59 GEN60) GEN61)) GEN62)) (>= (+ (str.indexof uri GEN63 GEN64) GEN65) GEN66)) (>= (- (str.len uri) (+ (str.indexof uri GEN67 GEN68) GEN69)) GEN70))))
(assert (= BAV2 (and (and (and (and (and (and (and (and (and (and (and (not (not (= (ite (= (str.len (str.substr (str.substr uri (+ (str.indexof uri GEN1 GEN2) GEN3) (- (str.len uri) (+ (str.indexof uri GEN4 GEN5) GEN6))) GEN7 (- GEN8 GEN9))) GEN10) GEN11 GEN12) GEN13))) (not (not (= (ite (str.contains (str.substr uri (+ (str.indexof uri GEN14 GEN15) GEN16) (- (str.len uri) (+ (str.indexof uri GEN17 GEN18) GEN19))) GEN20) GEN21 GEN22) GEN23)))) (not (not (= (ite (= (str.len (str.substr uri (+ (str.indexof uri GEN24 GEN25) GEN26) (- (str.len uri) (+ (str.indexof uri GEN27 GEN28) GEN29)))) GEN30) GEN31 GEN32) GEN33)))) (not (= (ite (str.contains uri GEN34) GEN35 GEN36) GEN37))) (not (not (= (ite (= (str.len uri) GEN38) GEN39 GEN40) GEN41)))) (>= (+ (str.indexof uri GEN42 GEN43) GEN44) GEN45)) (>= (- (str.len uri) (+ (str.indexof uri GEN46 GEN47) GEN48)) GEN49)) (>= GEN50 GEN51)) (>= (- GEN52 GEN53) GEN54)) (>= (+ (str.indexof uri GEN55 GEN56) GEN57) GEN58)) (>= (- (str.len uri) (+ (str.indexof uri GEN59 GEN60) GEN61)) GEN62)) (>= (+ (str.indexof uri GEN63 GEN64) GEN65) GEN66))))
(assert (= BAV3 (and (and (and (and (and (and (and (and (and (and (not (not (= (ite (= (str.len (str.substr (str.substr uri (+ (str.indexof uri GEN1 GEN2) GEN3) (- (str.len uri) (+ (str.indexof uri GEN4 GEN5) GEN6))) GEN7 (- GEN8 GEN9))) GEN10) GEN11 GEN12) GEN13))) (not (not (= (ite (str.contains (str.substr uri (+ (str.indexof uri GEN14 GEN15) GEN16) (- (str.len uri) (+ (str.indexof uri GEN17 GEN18) GEN19))) GEN20) GEN21 GEN22) GEN23)))) (not (not (= (ite (= (str.len (str.substr uri (+ (str.indexof uri GEN24 GEN25) GEN26) (- (str.len uri) (+ (str.indexof uri GEN27 GEN28) GEN29)))) GEN30) GEN31 GEN32) GEN33)))) (not (= (ite (str.contains uri GEN34) GEN35 GEN36) GEN37))) (not (not (= (ite (= (str.len uri) GEN38) GEN39 GEN40) GEN41)))) (>= (+ (str.indexof uri GEN42 GEN43) GEN44) GEN45)) (>= (- (str.len uri) (+ (str.indexof uri GEN46 GEN47) GEN48)) GEN49)) (>= GEN50 GEN51)) (>= (- GEN52 GEN53) GEN54)) (>= (+ (str.indexof uri GEN55 GEN56) GEN57) GEN58)) (>= (- (str.len uri) (+ (str.indexof uri GEN59 GEN60) GEN61)) GEN62))))
(assert (= BAV4 (and (and (and (and (and (and (and (and (and (not (not (= (ite (= (str.len (str.substr (str.substr uri (+ (str.indexof uri GEN1 GEN2) GEN3) (- (str.len uri) (+ (str.indexof uri GEN4 GEN5) GEN6))) GEN7 (- GEN8 GEN9))) GEN10) GEN11 GEN12) GEN13))) (not (not (= (ite (str.contains (str.substr uri (+ (str.indexof uri GEN14 GEN15) GEN16) (- (str.len uri) (+ (str.indexof uri GEN17 GEN18) GEN19))) GEN20) GEN21 GEN22) GEN23)))) (not (not (= (ite (= (str.len (str.substr uri (+ (str.indexof uri GEN24 GEN25) GEN26) (- (str.len uri) (+ (str.indexof uri GEN27 GEN28) GEN29)))) GEN30) GEN31 GEN32) GEN33)))) (not (= (ite (str.contains uri GEN34) GEN35 GEN36) GEN37))) (not (not (= (ite (= (str.len uri) GEN38) GEN39 GEN40) GEN41)))) (>= (+ (str.indexof uri GEN42 GEN43) GEN44) GEN45)) (>= (- (str.len uri) (+ (str.indexof uri GEN46 GEN47) GEN48)) GEN49)) (>= GEN50 GEN51)) (>= (- GEN52 GEN53) GEN54)) (>= (+ (str.indexof uri GEN55 GEN56) GEN57) GEN58))))
(assert (= BAV5 (and (and (and (and (and (and (and (and (not (not (= (ite (= (str.len (str.substr (str.substr uri (+ (str.indexof uri GEN1 GEN2) GEN3) (- (str.len uri) (+ (str.indexof uri GEN4 GEN5) GEN6))) GEN7 (- GEN8 GEN9))) GEN10) GEN11 GEN12) GEN13))) (not (not (= (ite (str.contains (str.substr uri (+ (str.indexof uri GEN14 GEN15) GEN16) (- (str.len uri) (+ (str.indexof uri GEN17 GEN18) GEN19))) GEN20) GEN21 GEN22) GEN23)))) (not (not (= (ite (= (str.len (str.substr uri (+ (str.indexof uri GEN24 GEN25) GEN26) (- (str.len uri) (+ (str.indexof uri GEN27 GEN28) GEN29)))) GEN30) GEN31 GEN32) GEN33)))) (not (= (ite (str.contains uri GEN34) GEN35 GEN36) GEN37))) (not (not (= (ite (= (str.len uri) GEN38) GEN39 GEN40) GEN41)))) (>= (+ (str.indexof uri GEN42 GEN43) GEN44) GEN45)) (>= (- (str.len uri) (+ (str.indexof uri GEN46 GEN47) GEN48)) GEN49)) (>= GEN50 GEN51)) (>= (- GEN52 GEN53) GEN54))))
(assert (= BAV6 (and (and (and (and (and (and (and (not (not (= (ite (= (str.len (str.substr (str.substr uri (+ (str.indexof uri GEN1 GEN2) GEN3) (- (str.len uri) (+ (str.indexof uri GEN4 GEN5) GEN6))) GEN7 (- GEN8 GEN9))) GEN10) GEN11 GEN12) GEN13))) (not (not (= (ite (str.contains (str.substr uri (+ (str.indexof uri GEN14 GEN15) GEN16) (- (str.len uri) (+ (str.indexof uri GEN17 GEN18) GEN19))) GEN20) GEN21 GEN22) GEN23)))) (not (not (= (ite (= (str.len (str.substr uri (+ (str.indexof uri GEN24 GEN25) GEN26) (- (str.len uri) (+ (str.indexof uri GEN27 GEN28) GEN29)))) GEN30) GEN31 GEN32) GEN33)))) (not (= (ite (str.contains uri GEN34) GEN35 GEN36) GEN37))) (not (not (= (ite (= (str.len uri) GEN38) GEN39 GEN40) GEN41)))) (>= (+ (str.indexof uri GEN42 GEN43) GEN44) GEN45)) (>= (- (str.len uri) (+ (str.indexof uri GEN46 GEN47) GEN48)) GEN49)) (>= GEN50 GEN51))))
(assert (= BAV7 (and (and (and (and (and (and (not (not (= (ite (= (str.len (str.substr (str.substr uri (+ (str.indexof uri GEN1 GEN2) GEN3) (- (str.len uri) (+ (str.indexof uri GEN4 GEN5) GEN6))) GEN7 (- GEN8 GEN9))) GEN10) GEN11 GEN12) GEN13))) (not (not (= (ite (str.contains (str.substr uri (+ (str.indexof uri GEN14 GEN15) GEN16) (- (str.len uri) (+ (str.indexof uri GEN17 GEN18) GEN19))) GEN20) GEN21 GEN22) GEN23)))) (not (not (= (ite (= (str.len (str.substr uri (+ (str.indexof uri GEN24 GEN25) GEN26) (- (str.len uri) (+ (str.indexof uri GEN27 GEN28) GEN29)))) GEN30) GEN31 GEN32) GEN33)))) (not (= (ite (str.contains uri GEN34) GEN35 GEN36) GEN37))) (not (not (= (ite (= (str.len uri) GEN38) GEN39 GEN40) GEN41)))) (>= (+ (str.indexof uri GEN42 GEN43) GEN44) GEN45)) (>= (- (str.len uri) (+ (str.indexof uri GEN46 GEN47) GEN48)) GEN49))))
(assert (= BAV8 (and (and (and (and (and (not (not (= (ite (= (str.len (str.substr (str.substr uri (+ (str.indexof uri GEN1 GEN2) GEN3) (- (str.len uri) (+ (str.indexof uri GEN4 GEN5) GEN6))) GEN7 (- GEN8 GEN9))) GEN10) GEN11 GEN12) GEN13))) (not (not (= (ite (str.contains (str.substr uri (+ (str.indexof uri GEN14 GEN15) GEN16) (- (str.len uri) (+ (str.indexof uri GEN17 GEN18) GEN19))) GEN20) GEN21 GEN22) GEN23)))) (not (not (= (ite (= (str.len (str.substr uri (+ (str.indexof uri GEN24 GEN25) GEN26) (- (str.len uri) (+ (str.indexof uri GEN27 GEN28) GEN29)))) GEN30) GEN31 GEN32) GEN33)))) (not (= (ite (str.contains uri GEN34) GEN35 GEN36) GEN37))) (not (not (= (ite (= (str.len uri) GEN38) GEN39 GEN40) GEN41)))) (>= (+ (str.indexof uri GEN42 GEN43) GEN44) GEN45))))
(assert (= BAV9 (and (and (and (and (not (not (= (ite (= (str.len (str.substr (str.substr uri (+ (str.indexof uri GEN1 GEN2) GEN3) (- (str.len uri) (+ (str.indexof uri GEN4 GEN5) GEN6))) GEN7 (- GEN8 GEN9))) GEN10) GEN11 GEN12) GEN13))) (not (not (= (ite (str.contains (str.substr uri (+ (str.indexof uri GEN14 GEN15) GEN16) (- (str.len uri) (+ (str.indexof uri GEN17 GEN18) GEN19))) GEN20) GEN21 GEN22) GEN23)))) (not (not (= (ite (= (str.len (str.substr uri (+ (str.indexof uri GEN24 GEN25) GEN26) (- (str.len uri) (+ (str.indexof uri GEN27 GEN28) GEN29)))) GEN30) GEN31 GEN32) GEN33)))) (not (= (ite (str.contains uri GEN34) GEN35 GEN36) GEN37))) (not (not (= (ite (= (str.len uri) GEN38) GEN39 GEN40) GEN41))))))
(assert (= BAV10 (and (and (and (not (not (= (ite (= (str.len (str.substr (str.substr uri (+ (str.indexof uri GEN1 GEN2) GEN3) (- (str.len uri) (+ (str.indexof uri GEN4 GEN5) GEN6))) GEN7 (- GEN8 GEN9))) GEN10) GEN11 GEN12) GEN13))) (not (not (= (ite (str.contains (str.substr uri (+ (str.indexof uri GEN14 GEN15) GEN16) (- (str.len uri) (+ (str.indexof uri GEN17 GEN18) GEN19))) GEN20) GEN21 GEN22) GEN23)))) (not (not (= (ite (= (str.len (str.substr uri (+ (str.indexof uri GEN24 GEN25) GEN26) (- (str.len uri) (+ (str.indexof uri GEN27 GEN28) GEN29)))) GEN30) GEN31 GEN32) GEN33)))) (not (= (ite (str.contains uri GEN34) GEN35 GEN36) GEN37)))))
(assert (= BAV11 (and (and (not (not (= (ite (= (str.len (str.substr (str.substr uri (+ (str.indexof uri GEN1 GEN2) GEN3) (- (str.len uri) (+ (str.indexof uri GEN4 GEN5) GEN6))) GEN7 (- GEN8 GEN9))) GEN10) GEN11 GEN12) GEN13))) (not (not (= (ite (str.contains (str.substr uri (+ (str.indexof uri GEN14 GEN15) GEN16) (- (str.len uri) (+ (str.indexof uri GEN17 GEN18) GEN19))) GEN20) GEN21 GEN22) GEN23)))) (not (not (= (ite (= (str.len (str.substr uri (+ (str.indexof uri GEN24 GEN25) GEN26) (- (str.len uri) (+ (str.indexof uri GEN27 GEN28) GEN29)))) GEN30) GEN31 GEN32) GEN33))))))
(assert (= BAV12 (and (not (not (= (ite (= (str.len (str.substr (str.substr uri (+ (str.indexof uri GEN1 GEN2) GEN3) (- (str.len uri) (+ (str.indexof uri GEN4 GEN5) GEN6))) GEN7 (- GEN8 GEN9))) GEN10) GEN11 GEN12) GEN13))) (not (not (= (ite (str.contains (str.substr uri (+ (str.indexof uri GEN14 GEN15) GEN16) (- (str.len uri) (+ (str.indexof uri GEN17 GEN18) GEN19))) GEN20) GEN21 GEN22) GEN23))))))
(assert (= BAV13 (= (ite (= (str.len (str.substr (str.substr uri (+ (str.indexof uri GEN1 GEN2) GEN3) (- (str.len uri) (+ (str.indexof uri GEN4 GEN5) GEN6))) GEN7 (- GEN8 GEN9))) GEN10) GEN11 GEN12) GEN13)))
(assert (= BAV14 (= (str.len (str.substr (str.substr uri (+ (str.indexof uri GEN1 GEN2) GEN3) (- (str.len uri) (+ (str.indexof uri GEN4 GEN5) GEN6))) GEN7 (- GEN8 GEN9))) GEN10)))
(assert (= BAV15 (= (ite (str.contains (str.substr uri (+ (str.indexof uri GEN14 GEN15) GEN16) (- (str.len uri) (+ (str.indexof uri GEN17 GEN18) GEN19))) GEN20) GEN21 GEN22) GEN23)))
(assert (= BAV16 (= (ite (= (str.len (str.substr uri (+ (str.indexof uri GEN24 GEN25) GEN26) (- (str.len uri) (+ (str.indexof uri GEN27 GEN28) GEN29)))) GEN30) GEN31 GEN32) GEN33)))
(assert (= BAV17 (= (str.len (str.substr uri (+ (str.indexof uri GEN24 GEN25) GEN26) (- (str.len uri) (+ (str.indexof uri GEN27 GEN28) GEN29)))) GEN30)))
(assert (= BAV18 (= (ite (str.contains uri GEN34) GEN35 GEN36) GEN37)))
(assert (= BAV19 (= (ite (= (str.len uri) GEN38) GEN39 GEN40) GEN41)))
(assert (= BAV20 (= (str.len uri) GEN38)))
(assert (= BAV21 (>= (+ (str.indexof uri GEN42 GEN43) GEN44) GEN45)))
(assert (= BAV22 (>= (- (str.len uri) (+ (str.indexof uri GEN46 GEN47) GEN48)) GEN49)))
(assert (= BAV23 (>= GEN50 GEN51)))
(assert (= BAV24 (>= (- GEN52 GEN53) GEN54)))
(assert (= BAV25 (>= (+ (str.indexof uri GEN55 GEN56) GEN57) GEN58)))
(assert (= BAV26 (>= (- (str.len uri) (+ (str.indexof uri GEN59 GEN60) GEN61)) GEN62)))
(assert (= BAV27 (>= (+ (str.indexof uri GEN63 GEN64) GEN65) GEN66)))
(assert (= BAV28 (>= (- (str.len uri) (+ (str.indexof uri GEN67 GEN68) GEN69)) GEN70)))
(check-sat)
(get-model)